s td 497 2 612
b 1 1 437
b 2 2 198
b 3 2 223
b 4 3 224
b 5 3 255
b 6 4 256
b 7 24 332
b 8 247 248
b 9 5 248
b 10 5 267
b 11 5 331
b 12 331 332
b 13 332
b 14 6 268
b 15 6 309
b 16 309 310
b 17 7
b 18 8 285
b 19 10 448
b 20 9 286
b 21 9 447
b 22 447 448
b 23 448
b 24 11 199
b 25 199 200
b 26 12
b 27 13 479
b 28 14 179
b 29 15 180
b 30 15 471
b 31 365 366
b 32 16 365
b 33 16 472
b 34 471 472
b 35 472
b 36 17 537
b 37 18 538
b 38 19
b 39 241 242
b 40 20 241
b 41 20 370
b 42 369 370
b 43 370
b 44 21
b 45 22 170
b 46 22 226
b 47 22 411
b 48 23 459
b 49 25 604
b 50 26
b 51 27 539
b 52 27 574
b 53 239 240
b 54 28 240
b 55 293 294
b 56 28 293
b 57 28 540
b 58 29 173
b 59 257 258
b 60 30 257
b 61 30 428
b 62 31 203
b 63 32 204
b 64 33 405
b 65 34 395
b 66 34 548
b 67 35
b 68 36 368
b 69 37
b 70 38 461
b 71 58 520
b 72 39 462
b 73 39 519
b 74 519 520
b 75 520
b 76 40
b 77 41 473
b 78 41 549
b 79 42 550
b 80 42 595
b 81 43 429
b 82 43 596
b 83 44 576
b 84 45 386
b 85 45 475
b 86 46
b 87 47 510
b 88 47 565
b 89 565 566
b 90 48
b 91 49
b 92 50 502
b 93 51 269
b 94 51 504
b 95 51 545
b 96 52
b 97 53 452
b 98 54
b 99 55 413
b 100 56
b 101 57 317
b 102 57 377
b 103 57 466
b 104 59
b 105 60 164
b 106 60 474
b 107 61
b 108 62
b 109 63 482
b 110 481 482
b 111 482
b 112 64
b 113 65
b 114 66 302
b 115 67 183
b 116 68 184
b 117 193 194
b 118 69 194
b 119 69 415
b 120 415 416
b 121 70 351
b 122 70 546
b 123 71 229
b 124 71 352
b 125 72
b 126 73 599
b 127 74 187
b 128 75
b 129 76 399
b 130 399 400
b 131 77
b 132 78 216
b 133 477 478
b 134 78 477
b 135 78 530
b 136 79 541
b 137 541 542
b 138 249 250
b 139 80 250
b 140 80 354
b 141 81
b 142 82
b 143 83
b 144 84
b 145 85
b 146 86 585
b 147 87 586
b 148 585 586
b 149 586
b 150 88 356
b 151 88 491
b 152 89 401
b 153 90 230
b 154 91 553
b 155 553 554
b 156 92 217
b 157 217 218
b 158 93 493
b 159 287 288
b 160 94 288
b 161 94 454
b 162 95 339
b 163 96
b 164 97 282
b 165 281 282
b 166 282
b 167 98
b 168 99
b 169 100 436
b 170 435 436
b 171 436
b 172 101 196
b 173 283 284
b 174 102 284
b 175 102 372
b 176 103 276
b 177 103 291
b 178 104 580
b 179 105 358
b 180 357 358
b 181 358
b 182 106 526
b 183 107
b 184 108 402
b 185 109
b 186 110
b 187 111 517
b 188 111 571
b 189 571 572
b 190 112 518
b 191 113
b 192 114 340
b 193 177 178
b 194 115 177
b 195 115 422
b 196 421 422
b 197 422
b 198 116 514
b 199 117 533
b 200 118 304
b 201 118 307
b 202 119 308
b 203 119 341
b 204 120 272
b 205 121 570
b 206 122
b 207 123 191
b 208 191 192
b 209 124 319
b 210 125
b 211 126 322
b 212 126 380
b 213 127
b 214 128
b 215 129 390
b 216 129 535
b 217 535 536
b 218 148 536
b 219 148 593
b 220 130
b 221 131 167
b 222 132
b 223 133
b 224 134 515
b 225 135 483
b 226 137 425
b 227 137 324
b 228 323 324
b 229 136 323
b 230 136 484
b 231 138 495
b 232 139 507
b 233 507 508
b 234 485 486
b 235 140 485
b 236 140 602
b 237 601 602
b 238 602
b 239 141 263
b 240 141 561
b 241 142
b 242 143 555
b 243 144 236
b 244 145
b 245 146 488
b 246 146 557
b 247 147
b 248 149 457
b 249 149 594
b 250 150 209
b 251 150 458
b 252 151
b 253 152
b 254 153
b 255 154 295
b 256 154 382
b 257 155
b 258 156
b 259 157
b 260 158 327
b 261 159
b 262 160 297
b 263 297 298
b 264 161
b 265 162
b 266 163
b 267 165 166
b 268 168
b 269 169
b 270 171
b 271 172
b 272 174
b 273 175 176
b 274 181
b 275 182
b 276 185
b 277 186
b 278 188
b 279 189
b 280 190
b 281 195
b 282 197
b 283 201
b 284 202
b 285 205
b 286 206
b 287 207
b 288 208
b 289 210
b 290 211 212
b 291 213
b 292 214
b 293 215
b 294 219
b 295 220
b 296 221 222
b 297 225
b 298 227
b 299 228
b 300 231 232
b 301 233
b 302 234
b 303 235
b 304 237
b 305 238
b 306 243
b 307 244
b 308 245
b 309 246
b 310 251
b 311 252
b 312 253
b 313 254
b 314 259 260
b 315 261 262
b 316 264
b 317 265
b 318 266
b 319 270
b 320 271
b 321 273
b 322 274
b 323 275
b 324 277
b 325 278
b 326 279
b 327 280
b 328 289
b 329 290
b 330 292
b 331 296
b 332 299
b 333 300
b 334 301
b 335 303
b 336 305
b 337 306
b 338 311
b 339 312
b 340 313
b 341 314
b 342 315 316
b 343 318
b 344 320
b 345 321
b 346 325
b 347 326
b 348 328
b 349 329 330
b 350 333
b 351 334
b 352 335
b 353 336
b 354 337 338
b 355 342
b 356 343
b 357 344
b 358 345 346
b 359 347
b 360 348
b 361 349
b 362 350
b 363 353
b 364 355
b 365 359
b 366 360
b 367 361 362
b 368 363
b 369 364
b 370 367
b 371 371
b 372 373
b 373 374
b 374 375
b 375 376
b 376 378
b 377 379
b 378 381
b 379 383 384
b 380 385
b 381 387
b 382 388
b 383 389
b 384 391
b 385 392
b 386 393 394
b 387 396
b 388 397
b 389 398
b 390 403
b 391 404
b 392 406
b 393 407
b 394 408
b 395 409 410
b 396 412
b 397 414
b 398 417
b 399 418
b 400 419
b 401 420
b 402 423
b 403 424
b 404 426
b 405 427
b 406 430
b 407 431 432
b 408 433
b 409 434
b 410 438
b 411 439
b 412 440
b 413 441
b 414 442
b 415 443
b 416 444
b 417 445
b 418 446
b 419 449
b 420 450
b 421 451
b 422 453
b 423 455
b 424 456
b 425 460
b 426 463 464
b 427 465
b 428 467 468
b 429 469 470
b 430 476
b 431 480
b 432 487
b 433 489 490
b 434 492
b 435 494
b 436 496
b 437 497 498
b 438 499
b 439 500
b 440 501
b 441 503
b 442 505
b 443 506
b 444 509
b 445 511
b 446 512
b 447 513
b 448 516
b 449 521 522
b 450 523
b 451 524
b 452 525
b 453 527 528
b 454 529
b 455 531
b 456 532
b 457 534
b 458 543
b 459 544
b 460 547
b 461 551
b 462 552
b 463 556
b 464 558
b 465 559
b 466 560
b 467 562
b 468 563
b 469 564
b 470 567 568
b 471 569
b 472 573
b 473 575
b 474 577
b 475 578
b 476 579
b 477 581
b 478 582
b 479 583
b 480 584
b 481 587 588
b 482 589
b 483 590
b 484 591
b 485 592
b 486 597
b 487 598
b 488 600
b 489 603
b 490 605
b 491 606
b 492 607
b 493 608
b 494 609
b 495 610
b 496 611
b 497 612
1 2
1 4
1 6
1 7
1 14
1 17
1 18
1 19
1 24
1 26
1 27
1 28
1 29
1 36
1 37
1 38
1 39
1 44
1 45
1 48
1 49
1 50
1 51
1 53
1 58
1 59
1 62
1 63
1 64
1 65
1 67
1 68
1 69
1 70
1 71
1 76
1 77
1 79
1 81
1 83
1 84
1 86
1 87
1 90
1 91
1 92
1 93
1 96
1 97
1 98
1 99
1 100
1 101
1 104
1 105
1 107
1 108
1 109
1 112
1 113
1 114
1 115
1 116
1 117
1 121
1 123
1 125
1 126
1 127
1 128
1 129
1 131
1 132
1 136
1 138
1 141
1 142
1 143
1 144
1 145
1 146
1 150
1 152
1 153
1 154
1 156
1 158
1 159
1 162
1 163
1 164
1 167
1 168
1 169
1 172
1 173
1 176
1 178
1 179
1 182
1 183
1 184
1 185
1 186
1 187
1 190
1 191
1 192
1 193
1 198
1 199
1 200
1 202
1 204
1 205
1 206
1 207
1 209
1 210
1 211
1 213
1 214
1 215
1 220
1 221
1 222
1 223
1 224
1 225
1 226
1 231
1 232
1 234
1 239
1 241
1 242
1 243
1 244
1 245
1 247
1 248
1 250
1 252
1 253
1 254
1 255
1 257
1 258
1 259
1 260
1 261
1 262
1 264
1 265
1 266
1 267
1 268
1 269
1 270
1 271
1 272
1 273
1 274
1 275
1 276
1 277
1 278
1 279
1 280
1 281
1 282
1 283
1 284
1 285
1 286
1 287
1 288
1 289
1 290
1 291
1 292
1 293
1 294
1 295
1 296
1 297
1 298
1 299
1 300
1 301
1 302
1 303
1 304
1 305
1 306
1 307
1 308
1 309
1 310
1 311
1 312
1 313
1 314
1 315
1 316
1 317
1 318
1 319
1 320
1 321
1 322
1 323
1 324
1 325
1 326
1 327
1 328
1 329
1 330
1 331
1 332
1 333
1 334
1 335
1 336
1 337
1 338
1 339
1 340
1 341
1 342
1 343
1 344
1 345
1 346
1 347
1 348
1 349
1 350
1 351
1 352
1 353
1 354
1 355
1 356
1 357
1 358
1 359
1 360
1 361
1 362
1 363
1 364
1 365
1 366
1 367
1 368
1 369
1 370
1 371
1 372
1 373
1 374
1 375
1 376
1 377
1 378
1 379
1 380
1 381
1 382
1 383
1 384
1 385
1 386
1 387
1 388
1 389
1 390
1 391
1 392
1 393
1 394
1 395
1 396
1 397
1 398
1 399
1 400
1 401
1 402
1 403
1 404
1 405
1 406
1 407
1 408
1 409
1 410
1 411
1 412
1 413
1 414
1 415
1 416
1 417
1 418
1 419
1 420
1 421
1 422
1 423
1 424
1 425
1 426
1 427
1 428
1 429
1 430
1 431
1 432
1 433
1 434
1 435
1 436
1 437
1 438
1 439
1 440
1 441
1 442
1 443
1 444
1 445
1 446
1 447
1 448
1 449
1 450
1 451
1 452
1 453
1 454
1 455
1 456
1 457
1 458
1 459
1 460
1 461
1 462
1 463
1 464
1 465
1 466
1 467
1 468
1 469
1 470
1 471
1 472
1 473
1 474
1 475
1 476
1 477
1 478
1 479
1 480
1 481
1 482
1 483
1 484
1 485
1 486
1 487
1 488
1 489
1 490
1 491
1 492
1 493
1 494
1 495
1 496
1 497
2 3
4 5
7 13
8 9
9 11
10 11
11 12
12 13
14 15
15 16
19 23
20 21
21 22
22 23
24 25
29 30
30 34
31 32
32 33
33 35
34 35
39 40
40 41
41 43
42 43
45 47
46 47
51 52
53 54
54 57
55 56
56 57
59 60
60 61
65 66
71 75
72 73
73 74
74 75
77 78
79 80
81 82
84 85
87 88
88 89
93 95
94 95
101 103
102 103
105 106
109 111
110 111
117 118
118 119
119 120
121 122
123 124
129 130
132 135
133 134
134 135
136 137
138 139
139 140
146 148
147 149
148 149
150 151
154 155
156 157
159 160
160 161
164 166
165 166
169 171
170 171
173 174
174 175
176 177
179 181
180 181
187 188
188 189
193 194
194 195
195 197
196 197
200 201
202 203
207 208
211 212
215 216
216 217
217 218
218 219
226 227
227 228
228 229
229 230
232 233
234 235
235 236
236 238
237 238
239 240
245 246
248 249
250 251
255 256
262 263
